* ENCODING=ISO-8859-1
NAME          CPLEX
ROWS
 N  obj1    
 G  c1      
 G  c2      
 G  c3      
 G  c4      
 G  c5      
 G  c6      
 G  c7      
 G  c8      
 G  c9      
 G  c10     
 G  c11     
 G  c12     
 G  c13     
 G  c14     
 G  c15     
 G  c16     
 G  c17     
 G  c18     
 G  c19     
 G  c20     
 G  c21     
 G  c22     
 G  c23     
 G  c24     
 G  c25     
 G  c26     
 G  c27     
 G  c28     
 G  c29     
 G  c30     
 G  c31     
 G  c32     
 G  c33     
 G  c34     
 G  c35     
COLUMNS
    MARK0000  'MARKER'                 'INTORG'
    x1        obj1                            1
    x1        c3                            540
    x1        c16                           196
    x1        c31                           547
    x1        c32                           394
    x2        obj1                            1
    x2        c13                           288
    x2        c17                           500
    x2        c20                           152
    x2        c25                           802
    x2        c26                           202
    x2        c32                           950
    x3        obj1                            1
    x3        c2                            795
    x3        c9                            753
    x3        c24                           837
    x4        obj1                            1
    x4        c2                            809
    x4        c22                           278
    x4        c31                           125
    x4        c33                           292
    x5        obj1                            1
    x5        c8                            520
    x5        c11                           706
    x5        c16                           356
    x5        c27                           463
    x6        obj1                            1
    x6        c1                            494
    x6        c7                            806
    x7        obj1                            1
    x7        c12                           268
    x7        c24                           846
    x8        obj1                            1
    x8        c1                            157
    x8        c19                           973
    x9        obj1                            1
    x9        c5                            298
    x9        c7                            169
    x10       obj1                            1
    x10       c9                            798
    x10       c12                           732
    x10       c17                           613
    x10       c23                           862
    x10       c26                           238
    x10       c35                           130
    x11       obj1                            1
    x11       c10                           588
    x11       c11                           705
    x11       c24                           590
    x12       obj1                            1
    x12       c6                            462
    x12       c15                           488
    x12       c22                           152
    x12       c34                           892
    x13       obj1                            1
    x13       c18                           726
    x13       c25                           698
    x14       obj1                            1
    x14       c20                           499
    x14       c32                           441
    x15       obj1                            1
    x15       c4                            694
    x15       c14                           593
    x15       c16                           974
    x16       obj1                            1
    x16       c11                           534
    x16       c18                           792
    x17       obj1                            1
    x17       c21                           342
    x17       c27                           843
    x18       obj1                            1
    x18       c18                           813
    x18       c22                           594
    x18       c26                           233
    x18       c29                           404
    x18       c34                           200
    x19       obj1                            1
    x19       c24                           747
    x19       c25                           232
    x20       obj1                            1
    x21       obj1                            1
    x21       c11                           674
    x21       c24                           873
    x22       obj1                            1
    x22       c13                           804
    x22       c23                           238
    x22       c28                           649
    x23       obj1                            1
    x23       c33                           900
    x24       obj1                            1
    x24       c6                            161
    x24       c12                           691
    x24       c23                           886
    x24       c28                           943
    x24       c30                           539
    x25       obj1                            1
    x25       c1                            383
    x25       c20                           631
    x25       c21                           548
    x26       obj1                            1
    x26       c8                            565
    x26       c14                           889
    x26       c16                           218
    x26       c32                           263
    x27       obj1                            1
    x27       c1                            916
    x27       c12                           909
    x27       c21                           784
    x27       c23                           805
    x27       c24                           490
    x27       c26                           630
    x28       obj1                            1
    x28       c3                            312
    x28       c18                           649
    x28       c33                           160
    x28       c35                           640
    x29       obj1                            1
    x29       c7                            103
    x29       c16                           146
    x29       c22                           540
    x29       c28                           404
    x29       c29                           934
    x30       obj1                            1
    x30       c8                            847
    x31       obj1                            1
    x31       c4                            497
    x31       c18                           464
    x31       c29                           729
    x32       obj1                            1
    x33       obj1                            1
    x33       c9                            363
    x33       c12                           983
    x33       c17                           993
    x33       c18                           168
    x34       obj1                            1
    x34       c18                           472
    x34       c19                           672
    x34       c25                           457
    x35       obj1                            1
    x35       c2                            608
    x35       c21                           371
    x35       c22                           536
    x36       obj1                            1
    x36       c5                            360
    x36       c15                           220
    x36       c17                           853
    x37       obj1                            1
    x37       c3                            851
    x38       obj1                            1
    x38       c7                            587
    x38       c12                           838
    x38       c23                           345
    x38       c25                           441
    x38       c34                           832
    x39       obj1                            1
    x39       c11                           881
    x39       c21                           953
    x39       c31                           458
    x39       c35                           214
    x40       obj1                            1
    x40       c28                           590
    x40       c35                           846
    x41       obj1                            1
    x41       c12                           768
    x41       c23                           296
    x41       c25                           843
    x42       obj1                            1
    x42       c5                            152
    x42       c13                           824
    x42       c28                           620
    x43       obj1                            1
    x43       c2                            197
    x43       c24                           205
    x43       c30                           171
    x44       obj1                            1
    x44       c20                           921
    x45       obj1                            1
    x45       c7                            542
    x45       c14                           590
    x45       c15                           206
    x45       c27                           351
    x46       obj1                            1
    x46       c6                            521
    x46       c8                            786
    x46       c26                           188
    x46       c31                           576
    x47       obj1                            1
    x47       c6                            347
    x47       c11                           167
    x47       c12                           106
    x47       c13                           598
    x47       c14                           255
    x47       c17                           234
    x47       c22                           199
    x48       obj1                            1
    x48       c5                            713
    x48       c14                           500
    x48       c18                           592
    x49       obj1                            1
    x50       obj1                            1
    x50       c4                            603
    x50       c5                            547
    x50       c12                           771
    x50       c15                           880
    x50       c29                           315
    x50       c34                           842
    x51       obj1                            1
    x51       c5                            137
    x51       c12                           956
    x51       c27                           304
    x51       c29                           517
    x52       obj1                            1
    x52       c6                            363
    x52       c8                            206
    x52       c15                           765
    x52       c29                           920
    x53       obj1                            1
    x53       c5                            923
    x53       c20                           978
    x53       c29                           526
    x54       obj1                            1
    x54       c5                            750
    x54       c17                           583
    x54       c20                           616
    x54       c25                           769
    x54       c32                           446
    x55       obj1                            1
    x55       c9                            230
    x55       c10                           931
    x55       c14                           232
    x55       c23                           502
    x55       c33                           338
    x56       obj1                            1
    x56       c5                            696
    x56       c7                            351
    x57       obj1                            1
    x57       c3                            801
    x57       c10                           724
    x57       c11                           187
    x57       c22                           855
    x57       c23                           230
    x58       obj1                            1
    x58       c4                            171
    x58       c16                           724
    x58       c22                           582
    x58       c23                           473
    x58       c28                           361
    x59       obj1                            1
    x59       c2                            898
    x59       c13                           870
    x59       c35                           153
    x60       obj1                            1
    x60       c6                            532
    x60       c17                           983
    x61       obj1                            1
    x61       c29                           862
    x61       c30                           313
    x62       obj1                            1
    x62       c10                           978
    x62       c15                           100
    x62       c20                           927
    x62       c32                           323
    x63       obj1                            1
    x63       c14                           111
    x63       c16                           954
    x63       c19                           848
    x63       c25                           677
    x64       obj1                            1
    x64       c2                            672
    x64       c4                            754
    x64       c7                            176
    x64       c30                           702
    x65       obj1                            1
    x65       c13                           585
    x65       c18                           737
    x65       c31                           374
    x65       c34                           911
    x66       obj1                            1
    x66       c7                            966
    x66       c19                           264
    x66       c22                           659
    x66       c32                           340
    x66       c35                           767
    x67       obj1                            1
    x67       c2                            333
    x67       c7                            247
    x67       c15                           388
    x68       obj1                            1
    x68       c2                            493
    x68       c15                           821
    x68       c26                           667
    x69       obj1                            1
    x69       c5                            193
    x69       c7                            572
    x69       c22                           186
    x69       c25                           221
    x69       c26                           432
    x69       c33                           551
    x70       obj1                            1
    x70       c1                            988
    x70       c30                           199
    MARK0001  'MARKER'                 'INTEND'
RHS
    rhs       c1                           1469
    rhs       c2                           2403
    rhs       c3                           1252
    rhs       c4                           1360
    rhs       c5                           2385
    rhs       c6                           1193
    rhs       c7                           2260
    rhs       c8                           1462
    rhs       c9                           1072
    rhs       c10                          1611
    rhs       c11                          1927
    rhs       c12                          3511
    rhs       c13                          1985
    rhs       c14                          1585
    rhs       c15                          1934
    rhs       c16                          1784
    rhs       c17                          2380
    rhs       c18                          2707
    rhs       c19                          1379
    rhs       c20                          2362
    rhs       c21                          1499
    rhs       c22                          2291
    rhs       c23                          2319
    rhs       c24                          2294
    rhs       c25                          2570
    rhs       c26                          1295
    rhs       c27                           981
    rhs       c28                          1784
    rhs       c29                          2604
    rhs       c30                           962
    rhs       c31                          1040
    rhs       c32                          1579
    rhs       c33                          1121
    rhs       c34                          1839
    rhs       c35                          1375
BOUNDS
 LI bnd       x1        0
 LI bnd       x2        0
 LI bnd       x3        0
 LI bnd       x4        0
 LI bnd       x5        0
 LI bnd       x6        0
 LI bnd       x7        0
 LI bnd       x8        0
 LI bnd       x9        0
 LI bnd       x10       0
 LI bnd       x11       0
 LI bnd       x12       0
 LI bnd       x13       0
 LI bnd       x14       0
 LI bnd       x15       0
 LI bnd       x16       0
 LI bnd       x17       0
 LI bnd       x18       0
 LI bnd       x19       0
 LI bnd       x20       0
 LI bnd       x21       0
 LI bnd       x22       0
 LI bnd       x23       0
 LI bnd       x24       0
 LI bnd       x25       0
 LI bnd       x26       0
 LI bnd       x27       0
 LI bnd       x28       0
 LI bnd       x29       0
 LI bnd       x30       0
 LI bnd       x31       0
 LI bnd       x32       0
 LI bnd       x33       0
 LI bnd       x34       0
 LI bnd       x35       0
 LI bnd       x36       0
 LI bnd       x37       0
 LI bnd       x38       0
 LI bnd       x39       0
 LI bnd       x40       0
 LI bnd       x41       0
 LI bnd       x42       0
 LI bnd       x43       0
 LI bnd       x44       0
 LI bnd       x45       0
 LI bnd       x46       0
 LI bnd       x47       0
 LI bnd       x48       0
 LI bnd       x49       0
 LI bnd       x50       0
 LI bnd       x51       0
 LI bnd       x52       0
 LI bnd       x53       0
 LI bnd       x54       0
 LI bnd       x55       0
 LI bnd       x56       0
 LI bnd       x57       0
 LI bnd       x58       0
 LI bnd       x59       0
 LI bnd       x60       0
 LI bnd       x61       0
 LI bnd       x62       0
 LI bnd       x63       0
 LI bnd       x64       0
 LI bnd       x65       0
 LI bnd       x66       0
 LI bnd       x67       0
 LI bnd       x68       0
 LI bnd       x69       0
 LI bnd       x70       0
ENDATA
